networks/zoo_18_72/zoo_18_72-lower.sol
<?xml version = "1.0" encoding="UTF-8" standalone="yes"?>
<CPLEXSolution version="1.2">
 <header
   problemName="networks/zoo_18_72/zoo_18_72-lower.lp"
   solutionName="incumbent"
   solutionIndex="-1"
   objectiveValue="9"
   solutionTypeValue="3"
   solutionTypeString="primal"
   solutionStatusValue="101"
   solutionStatusString="integer optimal solution"
   solutionMethodString="mip"
   primalFeasible="1"
   dualFeasible="1"
   MIPNodes="0"
   MIPIterations="0"
   writeLevel="3"/>
 <quality
   epInt="1.0000000000000001e-05"
   epRHS="9.9999999999999995e-07"
   maxIntInfeas="0"
   maxPrimalInfeas="0"
   maxX="1"
   maxSlack="1"/>
 <variables>
  <variable name="Y(1,2)" index="1" value="1"/>
  <variable name="Y(2,3)" index="20" value="1"/>
  <variable name="Y(3,4)" index="39" value="1"/>
  <variable name="Y(4,5)" index="58" value="1"/>
  <variable name="Y(5,6)" index="77" value="1"/>
  <variable name="Y(6,7)" index="96" value="1"/>
  <variable name="Y(7,8)" index="115" value="1"/>
  <variable name="Y(8,9)" index="134" value="1"/>
  <variable name="Y(9,1)" index="144" value="1"/>
  <variable name="X(1,2,1)" index="1296" value="1"/>
  <variable name="X(1,10,9)" index="1376" value="1"/>
  <variable name="X(2,1,9)" index="1448" value="1"/>
  <variable name="X(2,3,2)" index="1513" value="1"/>
  <variable name="X(2,4,3)" index="1586" value="1"/>
  <variable name="X(2,6,5)" index="1660" value="1"/>
  <variable name="X(2,7,6)" index="1733" value="1"/>
  <variable name="X(2,8,7)" index="1806" value="1"/>
  <variable name="X(2,9,8)" index="1879" value="1"/>
  <variable name="X(2,11,1)" index="1944" value="1"/>
  <variable name="X(3,2,17)" index="2032" value="1"/>
  <variable name="X(3,12,2)" index="2089" value="1"/>
  <variable name="X(4,2,25)" index="2184" value="1"/>
  <variable name="X(4,5,4)" index="2235" value="1"/>
  <variable name="X(4,9,32)" index="2335" value="1"/>
  <variable name="X(4,13,3)" index="2378" value="1"/>
  <variable name="X(5,4,33)" index="2480" value="1"/>
  <variable name="X(5,14,4)" index="2523" value="1"/>
  <variable name="X(6,2,41)" index="2632" value="1"/>
  <variable name="X(6,15,5)" index="2668" value="1"/>
  <variable name="X(7,2,49)" index="2784" value="1"/>
  <variable name="X(7,16,6)" index="2813" value="1"/>
  <variable name="X(8,2,57)" index="2936" value="1"/>
  <variable name="X(8,17,7)" index="2958" value="1"/>
  <variable name="X(9,2,65)" index="3088" value="1"/>
  <variable name="X(9,4,68)" index="3163" value="1"/>
  <variable name="X(9,18,8)" index="3175" value="1"/>
 </variables>
</CPLEXSolution>
